problems/csplib-prob024/Langford-models/noch/O2/lingeling/model-langford_2_7-solution000001.eprime-solution
language ESSENCE' 1.0

letting seq_Function1D be [6, 1, 5, 1, 7, 3, 4, 6, 5, 3, 2, 4, 7, 2; int(1..14)]
