problems/csplib-prob024/Langford-models/noch/O2/lingeling/model-langford_2_7-solution000001.solution
language Essence 1.3

letting seq be
        function(1 --> 6, 2 --> 1, 3 --> 5, 4 --> 1, 5 --> 7, 6 --> 3, 7 --> 4, 8 --> 6, 9 --> 5, 10 --> 3, 11 --> 2,
                 12 --> 4, 13 --> 7, 14 --> 2)
